Name: EasyAcademy7
Courses: 159
Rooms: 51
Days: 5
Periods_per_day: 10
Curricula: 61
Min_Max_Daily_Lectures: 3 7
UnavailabilityConstraints: 1134
RoomConstraints: 938

COURSES:
c1750 t8 4 1 68 1
c1751 t8 1 1 10 0
c1752 t9 6 3 165 1
c1753 no_teacher1 4 2 80 1
c1754 no_teacher2 4 2 80 1
c1755 t10 6 3 165 1
c1756 no_teacher3 4 2 80 1
c1757 no_teacher4 4 2 80 1
c1758 t11 6 3 165 1
c1759 no_teacher5 4 2 80 1
c1760 no_teacher6 4 2 80 1
c1761 t12 6 3 165 1
c1762 no_teacher7 4 2 80 1
c1763 no_teacher8 4 2 80 1
c1765 t14 2 1 150 1
c1767 t14 4 2 150 1
c1768 t14 2 1 150 1
c1769 t14 4 2 150 1
c1771 t16 4 2 27 1
cU1 t19 4 2 200 1
c1776 t20 4 2 20 1
c1777 t19 2 1 130 1
c1778 t19 2 1 200 1
c1779 t21 5 2 40 1
c1780 t21 3 1 40 1
c1781 t22 6 2 57 1
c1782 t23 6 3 46 1
c1783 t24 6 2 15 1
c1784 t24 6 2 15 1
c1785 t25 6 2 15 1
c1786 t25 4 2 40 1
c1787 t26 6 2 15 1
c1788 no_teacher9 4 2 10 1
c1789 t28 3 1 48 1
c1790 t29 4 2 180 1
c1791 t140 6 2 130 1
c1792 t31 8 3 180 1
c1793 t32 4 2 22 1
c1794 no_teacher10 4 2 200 1
c1795 t91 4 2 180 1
c1796 t91 4 2 180 1
c1797 t35 6 2 40 1
c1798 t36 6 3 40 1
c1799 t34 4 2 20 1
c1800 t34 4 2 20 1
c1801 t36 6 3 22 1
c1802 t36 4 1 22 1
c1803 t37 6 2 20 1
c1804 t37 6 2 20 1
c1805 t38 4 2 67 1
c1806 t38 4 2 67 1
c1807 t39 4 2 150 1
c1808 t39 2 1 150 1
c1809 t40 4 2 150 1
c1810 t40 2 1 150 1
c1811 t119 4 2 150 1
c1812 t119 2 1 150 1
c1813 t42 4 2 120 1
c1814 t42 4 2 72 1
c1815 t43 4 2 180 1
c1816 t43 2 1 90 1
c1817 t43 2 1 90 1
c1818 t44 6 2 128 1
c1819 t45 6 2 24 1
c1822 t47 6 2 160 1
c1824 t49 6 2 110 1
c1825 t49 2 1 110 1
c1826 t50 4 2 40 1
c1827 t50 2 1 40 1
c1828 no_teacher11 2 1 15 1
c1829 no_teacher12 2 1 15 1
c1830 no_teacher13 1 1 15 0
c1831 t54 4 1 72 1
c1832 t55 3 1 22 1
c1833 t56 6 2 128 1
c1834 t57 6 2 90 1
c1835 no_teacher14 4 2 40 1
c1836 no_teacher15 4 2 40 1
c1837 t59 6 2 22 1
c1838 t50 6 2 132 1
c1839 t60 6 2 80 1
c1840 t60 3 1 80 1
c1841 t62 6 2 30 1
c1842 t62 2 1 30 1
c1844 t62 2 1 180 1
c1845 t62 2 1 90 1
c1846 t62 2 1 90 1
c1847 t63 3 1 20 1
c1850 t66 6 3 90 1
c1851 t33 6 2 81 1
c1852 t67 4 2 30 1
c1853 t68 2 1 30 1
c1854 t69 4 2 90 1
c1856 t71 4 2 120 1
c1857 t71 4 2 120 1
c1858 t72 4 2 80 1
c1861 t72 4 2 128 1
c1862 t74 4 2 46 1
c1863 t74 4 2 46 1
c1864 no_teacher16 4 1 15 1
c1865 no_teacher17 2 1 15 1
c1868 t78 6 2 150 1
c1869 t79 2 1 150 1
c1870 t79 2 1 95 1
c1871 t79 2 1 55 1
c1872 t80 4 2 20 1
c1873 t80 4 2 20 1
c1874 no_teacher18 4 2 40 1
c1875 t81 4 2 20 1
c1876 t81 4 2 20 1
c1878 t83 5 2 43 1
c1879 t84 6 2 80 1
c1880 t84 4 1 80 1
c1881 t85 6 2 37 1
c1882 no_teacher19 4 2 10 1
c1883 t87 4 2 80 1
c1884 t88 6 3 20 1
c1885 t88 4 1 20 1
c1886 t89 6 2 83 1
c1887 no_teacher20 4 2 12 1
c1888 t91 4 2 25 1
c1889 t92 6 2 118 1
c1890 t93 6 3 35 1
c1891 t94 4 2 10 1
c1892 t94 2 1 10 1
c1893 t23 4 2 40 1
c1894 t116 4 2 215 1
c1895 t96 4 1 28 1
c1896 t18 6 3 160 1
c1897 t68 4 2 120 1
c1898 t97 6 2 150 1
c1902 t100 6 2 30 1
c1903 t100 6 2 30 1
c2073 t15 6 2 72 1
c2085 t110 4 1 72 1
c2136 t128 4 1 20 1
c2164 t70 4 2 57 1
c2165 t70 2 1 57 1
c2176 no_teacher21 4 2 120 1
c2179 t56 4 1 30 1
c2194 t48 6 2 86 1
c2195 t48 2 1 86 1
c2337 t55 3 1 14 1
c2339 t82 4 2 14 1
c2574 t77 4 2 13 1
c2578 no_teacher22 1 1 10 0
c2579 t64 4 2 27 1
c2582 t98 6 2 20 1
c2583 t98 4 2 24 1
c2589 t81 1 1 10 0
c2590 t81 2 1 180 1
c2623 no_teacher23 1 1 10 0
c2647 t133 2 1 30 1
c2650 t141 4 2 17 1
c2663 t46 4 2 205 1
c2664 t29 8 2 22 1
c2671 t77 4 1 13 1
c2812 t33 4 2 6 1
c6161 t56 2 1 128 1

ROOMS:
r22 216 1
r23 112 1
r24 198 1
r25 60 1
r26 55 1
r27 144 1
r28 216 1
r4 50 0
r5 50 0
r6 50 0
r7 50 0
r8 50 0
r9 93 0
r10 93 0
r11 341 0
r12 90 0
r13 80 0
r14 80 0
r15 170 0
r16 189 0
r17 220 0
r88 90 0
r89 90 0
r253 180 0
r254 80 0
r255 80 0
r256 120 0
r257 168 0
r258 88 0
r259 96 0
r260 88 0
r18 32 0
r19 48 0
r20 40 0
r21 48 0
r29 142 2
r30 50 2
r31 162 2
r32 18 2
r33 32 2
r34 40 2
r35 20 2
r262 88 2
r261 56 2
r263 64 2
r264 56 2
r36 32 2
r37 28 2
r38 24 2
r41 14 2
r42 32 2

CURRICULA:
cu440 6 c1765 c1807 c1808 c1813 c1856 c2176
cu441 6 c1767 c1809 c1810 c1813 c1856 c2176
cu442 7 c1768 c1769 c1811 c1812 c1813 c1856 c2176
cu470 6 cU1 c1752 c1753 c1754 c1778 c1794
cu471 6 cU1 c1755 c1756 c1757 c1778 c1794
cu472 6 cU1 c1758 c1759 c1760 c1778 c1794
cu473 6 cU1 c1761 c1762 c1763 c1778 c1794
cu515 10 c1752 c1753 c1754 c1795 c1796 c1815 c1816 c1817 c2589 c2590
cu516 10 c1755 c1756 c1757 c1795 c1796 c1815 c1816 c1817 c2589 c2590
cu517 10 c1758 c1759 c1760 c1795 c1796 c1815 c1816 c1817 c2589 c2590
cu518 10 c1761 c1762 c1763 c1795 c1796 c1815 c1816 c1817 c2589 c2590
cu522 4 c1792 c1807 c1808 c1894
cu523 4 c1792 c1809 c1810 c1894
cu524 4 c1792 c1811 c1812 c1894
cu534 8 c1752 c1753 c1754 c1790 c1844 c1845 c1846 c2663
cu535 8 c1755 c1756 c1757 c1790 c1844 c1845 c1846 c2663
cu536 8 c1758 c1759 c1760 c1790 c1844 c1845 c1846 c2663
cu537 8 c1761 c1762 c1763 c1790 c1844 c1845 c1846 c2663
cu564 5 c1814 c1824 c1825 c1831 c2073
cu565 4 c1783 c1784 c1785 c1787
cu566 5 c1793 c1801 c1802 c1884 c1885
cu567 8 c1799 c1800 c1803 c1804 c1872 c1873 c1875 c1876
cu572 6 c1828 c1829 c1830 c1864 c1865 c1886
cu574 5 c1776 c1781 c1826 c1827 c2136
cu581 7 c1839 c1840 c1879 c1880 c1883 c1835 c1836
cu592 6 cU1 c1752 c1753 c1754 c1777 c1791
cu593 6 cU1 c1755 c1756 c1757 c1777 c1791
cu594 6 cU1 c1758 c1759 c1760 c1777 c1791
cu595 6 cU1 c1761 c1762 c1763 c1777 c1791
cu596 5 c1765 c1807 c1808 c1857 c1897
cu597 5 c1767 c1809 c1810 c1857 c1897
cu598 6 c1768 c1769 c1811 c1812 c1857 c1897
cu623A 10 c1805 c1806 c1862 c1863 c1893 c2574 c2671 c1788 c1874 c1878
cu623B 10 c1805 c1806 c1862 c1863 c1893 c2574 c2671 c1750 c1751 c1878
cu624 10 c1805 c1806 c1862 c1863 c1893 c1750 c1751 c1788 c1874 c1878
cu628 5 c1765 c1807 c1808 c1868 c1898
cu629 5 c1767 c1809 c1810 c1868 c1898
cu630 6 c1768 c1769 c1811 c1812 c1868 c1898
cu637 6 c1858 c1869 c1870 c1871 c2194 c2195
cu638 10 c1881 c1889 c1890 c1750 c1819 c1882 c1887 c1891 c1892 c2583
cu639 11 c1841 c1842 c1902 c1903 c1751 c1819 c1882 c1887 c1891 c1892 c2583
cu645 7 c1834 c1850 c1854 c1874 c2164 c2165 c2647
cu647 6 c1771 c1851 c1878 c1889 c2578 c2623
cu648 7 c1805 c1806 c1851 c1889 c2579 c2578 c2623
cu649 6 c1851 c1889 c2164 c2165 c2578 c2623
cu687 4 c1786 c1797 c1798 c1888
cu688 3 c1786 c1797 c1798
cu709 3 c2085 c2339 c2664
cu710 6 c1781 c1826 c1827 c1832 c2085 c2337
cu711 3 c1789 c1837 c2085
cu712 3 c2085 c2339 c2650
cu717A 9 c1819 c1847 c1751 c1831 c1832 c1837 c1838 c2073 c2085 
cu717B 9 c1819 c1847 c1751 c1831 c1832 c2337 c2339 c2650 c2664
cu717C 10 c1819 c1847 c1750 c1837 c1838 c2073 c2085 c2337 c2339 c2650
cu718A 11 c1818 c1833 c1861 c6161 c1750 c1751 c1765 c1767 c1768 c1886 c1895
cu718B 10 c1818 c1833 c1861 c6161 c1751 c1765 c1767 c1768 c1769 c1789 
cu756 7 c1822 c1824 c1825 c1896 c1750 c1838 c1894
cu757 7 c1822 c1838 c1896 c1751 c1781 c1894 c2663
cu760 6 c1779 c1780 c1782 c1869 c1870 c1886
cu762 13 c1852 c1853 c1869 c1870 c1871 c2179 c1782 c1862 c1863 c1878 c2194 c2195 c2812
cu789 10 c2582 c2583 c1750 c1751 c1793 c1801 c1802 c1881 c1887 c1889

UNAVAILABILITY_CONSTRAINTS:
c1752 4 4
c1752 4 5
c1752 4 6
c1752 4 7
c1752 4 8
c1752 4 9
c1753 4 4
c1753 4 5
c1753 4 6
c1753 4 7
c1753 4 8
c1753 4 9
c1754 4 4
c1754 4 5
c1754 4 6
c1754 4 7
c1754 4 8
c1754 4 9
c1755 4 4
c1755 4 5
c1755 4 6
c1755 4 7
c1755 4 8
c1755 4 9
c1756 4 4
c1756 4 5
c1756 4 6
c1756 4 7
c1756 4 8
c1756 4 9
c1757 4 4
c1757 4 5
c1757 4 6
c1757 4 7
c1757 4 8
c1757 4 9
c1758 4 4
c1758 4 5
c1758 4 6
c1758 4 7
c1758 4 8
c1758 4 9
c1759 4 4
c1759 4 5
c1759 4 6
c1759 4 7
c1759 4 8
c1759 4 9
c1760 4 4
c1760 4 5
c1760 4 6
c1760 4 7
c1760 4 8
c1760 4 9
c1761 4 4
c1761 4 5
c1761 4 6
c1761 4 7
c1761 4 8
c1761 4 9
c1762 4 4
c1762 4 5
c1762 4 6
c1762 4 7
c1762 4 8
c1762 4 9
c1763 4 4
c1763 4 5
c1763 4 6
c1763 4 7
c1763 4 8
c1763 4 9
cU1 0 8
cU1 0 9
cU1 1 8
cU1 1 9
cU1 2 8
cU1 2 9
cU1 3 8
cU1 3 9
cU1 4 4
cU1 4 5
cU1 4 6
cU1 4 7
cU1 4 8
cU1 4 9
c1777 0 0
c1777 0 1
c1777 0 2
c1777 0 3
c1777 0 4
c1777 0 5
c1777 0 8
c1777 0 9
c1777 1 0
c1777 1 1
c1777 1 2
c1777 1 3
c1777 1 4
c1777 1 5
c1777 1 8
c1777 1 9
c1777 2 0
c1777 2 1
c1777 2 2
c1777 2 3
c1777 2 4
c1777 2 5
c1777 2 8
c1777 2 9
c1777 3 0
c1777 3 1
c1777 3 2
c1777 3 3
c1777 3 4
c1777 3 5
c1777 3 8
c1777 3 9
c1777 4 0
c1777 4 1
c1777 4 2
c1777 4 3
c1777 4 4
c1777 4 5
c1777 4 6
c1777 4 7
c1777 4 8
c1777 4 9
c1778 0 0
c1778 0 1
c1778 0 2
c1778 0 3
c1778 0 4
c1778 0 5
c1778 0 8
c1778 0 9
c1778 1 0
c1778 1 1
c1778 1 2
c1778 1 3
c1778 1 4
c1778 1 5
c1778 1 8
c1778 1 9
c1778 2 0
c1778 2 1
c1778 2 2
c1778 2 3
c1778 2 4
c1778 2 5
c1778 2 8
c1778 2 9
c1778 3 0
c1778 3 1
c1778 3 2
c1778 3 3
c1778 3 4
c1778 3 5
c1778 3 8
c1778 3 9
c1778 4 0
c1778 4 1
c1778 4 2
c1778 4 3
c1778 4 4
c1778 4 5
c1778 4 6
c1778 4 7
c1778 4 8
c1778 4 9
c1781 0 0
c1781 0 1
c1781 0 2
c1781 0 3
c1781 0 4
c1781 0 5
c1781 0 6
c1781 0 7
c1781 0 8
c1781 0 9
c1781 4 0
c1781 4 1
c1781 4 2
c1781 4 3
c1781 4 4
c1781 4 5
c1781 4 6
c1781 4 7
c1781 4 8
c1781 4 9
c1782 0 0
c1782 0 1
c1782 0 2
c1782 0 3
c1782 0 4
c1782 0 5
c1782 0 6
c1782 0 7
c1782 0 8
c1782 0 9
c1782 3 6
c1782 3 8
c1782 4 0
c1782 4 2
c1782 4 4
c1782 4 6
c1782 4 8
c1782 4 9
c1785 0 5
c1785 0 6
c1785 0 7
c1785 0 8
c1785 1 5
c1785 1 6
c1785 1 7
c1785 1 8
c1785 2 5
c1785 2 6
c1785 2 7
c1785 2 8
c1785 3 5
c1785 3 6
c1785 3 7
c1785 3 8
c1785 4 5
c1785 4 6
c1785 4 7
c1785 4 8
c1786 0 5
c1786 0 6
c1786 0 7
c1786 0 8
c1786 1 5
c1786 1 6
c1786 1 7
c1786 1 8
c1786 2 5
c1786 2 6
c1786 2 7
c1786 2 8
c1786 3 5
c1786 3 6
c1786 3 7
c1786 3 8
c1786 4 5
c1786 4 6
c1786 4 7
c1786 4 8
c1789 0 0
c1789 0 1
c1789 0 2
c1789 0 3
c1789 0 4
c1789 0 5
c1789 0 6
c1789 0 7
c1789 0 8
c1789 0 9
c1789 1 0
c1789 1 1
c1789 1 2
c1789 1 3
c1789 1 4
c1789 1 5
c1789 1 6
c1789 1 7
c1789 1 8
c1789 1 9
c1790 0 6
c1790 0 7
c1790 0 8
c1790 0 9
c1790 1 6
c1790 1 7
c1790 1 8
c1790 1 9
c1790 2 6
c1790 2 7
c1790 2 8
c1790 2 9
c1790 3 6
c1790 3 7
c1790 3 8
c1790 3 9
c1790 4 4
c1790 4 5
c1790 4 6
c1790 4 7
c1790 4 8
c1790 4 9
c1791 4 4
c1791 4 5
c1791 4 6
c1791 4 7
c1791 4 8
c1791 4 9
c1794 4 4
c1794 4 5
c1794 4 6
c1794 4 7
c1794 4 8
c1794 4 9
c1795 4 4
c1795 4 5
c1795 4 6
c1795 4 7
c1795 4 8
c1795 4 9
c1796 4 4
c1796 4 5
c1796 4 6
c1796 4 7
c1796 4 8
c1796 4 9
c1797 3 0
c1797 3 1
c1797 3 2
c1797 3 3
c1797 3 4
c1797 3 5
c1797 3 6
c1797 3 7
c1797 3 8
c1797 3 9
c1797 4 0
c1797 4 1
c1797 4 2
c1797 4 3
c1797 4 4
c1797 4 5
c1797 4 6
c1797 4 7
c1797 4 8
c1797 4 9
c1798 0 0
c1798 0 1
c1798 1 0
c1798 1 1
c1798 2 0
c1798 2 1
c1798 3 0
c1798 3 1
c1798 4 0
c1798 4 1
c1799 3 0
c1799 3 1
c1799 3 2
c1799 3 3
c1799 3 4
c1799 3 5
c1799 3 6
c1799 3 7
c1799 3 8
c1799 3 9
c1800 3 0
c1800 3 1
c1800 3 2
c1800 3 3
c1800 3 4
c1800 3 5
c1800 3 6
c1800 3 7
c1800 3 8
c1800 3 9
c1801 0 0
c1801 0 1
c1801 1 0
c1801 1 1
c1801 2 0
c1801 2 1
c1801 3 0
c1801 3 1
c1801 4 0
c1801 4 1
c1802 0 0
c1802 0 1
c1802 1 0
c1802 1 1
c1802 2 0
c1802 2 1
c1802 3 0
c1802 3 1
c1802 4 0
c1802 4 1
c1808 0 0
c1808 0 1
c1808 0 2
c1808 0 3
c1808 0 4
c1808 1 0
c1808 1 1
c1808 1 2
c1808 1 3
c1808 1 4
c1808 2 0
c1808 2 1
c1808 2 2
c1808 2 3
c1808 2 4
c1808 3 0
c1808 3 1
c1808 3 2
c1808 3 3
c1808 3 4
c1808 4 0
c1808 4 1
c1808 4 2
c1808 4 3
c1808 4 4
c1810 0 0
c1810 0 1
c1810 0 2
c1810 0 3
c1810 0 4
c1810 1 0
c1810 1 1
c1810 1 2
c1810 1 3
c1810 1 4
c1810 2 0
c1810 2 1
c1810 2 2
c1810 2 3
c1810 2 4
c1810 3 0
c1810 3 1
c1810 3 2
c1810 3 3
c1810 3 4
c1810 4 0
c1810 4 1
c1810 4 2
c1810 4 3
c1810 4 4
c1812 0 0
c1812 0 1
c1812 0 2
c1812 0 3
c1812 0 4
c1812 1 0
c1812 1 1
c1812 1 2
c1812 1 3
c1812 1 4
c1812 2 0
c1812 2 1
c1812 2 2
c1812 2 3
c1812 2 4
c1812 3 0
c1812 3 1
c1812 3 2
c1812 3 3
c1812 3 4
c1812 4 0
c1812 4 1
c1812 4 2
c1812 4 3
c1812 4 4
c1813 0 0
c1813 0 1
c1813 0 2
c1813 0 3
c1813 0 4
c1813 0 5
c1813 2 0
c1813 2 1
c1813 3 8
c1813 3 9
c1813 4 0
c1813 4 1
c1813 4 2
c1813 4 3
c1813 4 4
c1813 4 5
c1813 4 6
c1813 4 7
c1813 4 8
c1813 4 9
c1814 0 0
c1814 0 1
c1814 0 2
c1814 0 3
c1814 0 4
c1814 0 5
c1814 2 0
c1814 2 1
c1814 3 8
c1814 3 9
c1814 4 0
c1814 4 1
c1814 4 2
c1814 4 3
c1814 4 4
c1814 4 5
c1814 4 6
c1814 4 7
c1814 4 8
c1814 4 9
c1815 0 5
c1815 0 6
c1815 0 7
c1815 0 8
c1815 1 5
c1815 1 6
c1815 1 7
c1815 1 8
c1815 2 5
c1815 2 6
c1815 2 7
c1815 2 8
c1815 3 5
c1815 3 6
c1815 3 7
c1815 3 8
c1815 4 4
c1815 4 5
c1815 4 6
c1815 4 7
c1815 4 8
c1815 4 9
c1816 0 5
c1816 0 6
c1816 0 7
c1816 0 8
c1816 1 5
c1816 1 6
c1816 1 7
c1816 1 8
c1816 2 5
c1816 2 6
c1816 2 7
c1816 2 8
c1816 3 5
c1816 3 6
c1816 3 7
c1816 3 8
c1816 4 4
c1816 4 5
c1816 4 6
c1816 4 7
c1816 4 8
c1816 4 9
c1817 0 5
c1817 0 6
c1817 0 7
c1817 0 8
c1817 1 5
c1817 1 6
c1817 1 7
c1817 1 8
c1817 2 5
c1817 2 6
c1817 2 7
c1817 2 8
c1817 3 5
c1817 3 6
c1817 3 7
c1817 3 8
c1817 4 4
c1817 4 5
c1817 4 6
c1817 4 7
c1817 4 8
c1817 4 9
c1818 0 0
c1818 0 1
c1818 0 2
c1818 0 3
c1818 1 0
c1818 1 1
c1818 1 2
c1818 1 3
c1818 2 0
c1818 2 1
c1818 2 2
c1818 2 3
c1818 3 0
c1818 3 1
c1818 3 2
c1818 3 3
c1818 4 0
c1818 4 1
c1818 4 2
c1818 4 3
c1819 0 0
c1819 1 0
c1819 2 0
c1819 3 0
c1819 4 0
c1822 0 0
c1822 0 1
c1822 0 2
c1822 0 3
c1822 0 4
c1822 0 5
c1822 0 6
c1822 1 0
c1822 1 1
c1822 2 0
c1822 2 1
c1822 3 0
c1822 3 1
c1822 4 0
c1822 4 1
c1822 4 2
c1822 4 3
c1822 4 4
c1822 4 5
c1822 4 6
c1824 0 0
c1825 0 0
c1833 0 0
c1833 1 0
c1833 2 0
c1833 3 0
c1833 4 0
c1837 0 4
c1837 0 7
c1837 0 8
c1837 0 9
c1837 1 4
c1837 1 7
c1837 1 8
c1837 1 9
c1837 2 4
c1837 2 7
c1837 2 8
c1837 2 9
c1837 3 4
c1837 3 7
c1837 3 8
c1837 3 9
c1837 4 4
c1837 4 7
c1837 4 8
c1837 4 9
c1839 0 0
c1839 0 2
c1839 0 4
c1839 0 6
c1839 0 8
c1839 0 9
c1839 1 0
c1839 2 0
c1839 2 8
c1839 3 0
c1839 4 0
c1839 4 1
c1839 4 2
c1839 4 3
c1839 4 4
c1839 4 5
c1839 4 6
c1839 4 7
c1839 4 8
c1839 4 9
c1840 0 0
c1840 0 2
c1840 0 4
c1840 0 6
c1840 0 8
c1840 0 9
c1840 1 0
c1840 2 0
c1840 2 8
c1840 3 0
c1840 4 0
c1840 4 1
c1840 4 2
c1840 4 3
c1840 4 4
c1840 4 5
c1840 4 6
c1840 4 7
c1840 4 8
c1840 4 9
c1844 4 4
c1844 4 5
c1844 4 6
c1844 4 7
c1844 4 8
c1844 4 9
c1845 4 4
c1845 4 5
c1845 4 6
c1845 4 7
c1845 4 8
c1845 4 9
c1846 4 4
c1846 4 5
c1846 4 6
c1846 4 7
c1846 4 8
c1846 4 9
c1850 0 0
c1850 0 1
c1850 0 2
c1850 0 3
c1850 0 4
c1850 0 5
c1850 0 6
c1850 0 7
c1850 0 8
c1850 0 9
c1850 4 0
c1850 4 1
c1850 4 2
c1850 4 3
c1850 4 4
c1850 4 5
c1850 4 6
c1850 4 7
c1850 4 8
c1850 4 9
c1853 0 4
c1853 0 5
c1853 1 4
c1853 1 5
c1853 2 4
c1853 2 5
c1853 3 4
c1853 3 5
c1853 4 4
c1853 4 5
c1854 0 6
c1854 0 7
c1854 0 8
c1854 0 9
c1854 1 6
c1854 1 7
c1854 1 8
c1854 1 9
c1854 2 6
c1854 2 7
c1854 2 8
c1854 2 9
c1854 3 6
c1854 3 7
c1854 3 8
c1854 3 9
c1854 4 6
c1854 4 7
c1854 4 8
c1854 4 9
c1862 0 5
c1862 0 6
c1862 0 7
c1862 0 8
c1862 1 5
c1862 1 6
c1862 1 7
c1862 1 8
c1862 2 5
c1862 2 6
c1862 2 7
c1862 2 8
c1862 3 5
c1862 3 6
c1862 3 7
c1862 3 8
c1862 4 5
c1862 4 6
c1862 4 7
c1862 4 8
c1863 0 5
c1863 0 6
c1863 0 7
c1863 0 8
c1863 1 5
c1863 1 6
c1863 1 7
c1863 1 8
c1863 2 5
c1863 2 6
c1863 2 7
c1863 2 8
c1863 3 5
c1863 3 6
c1863 3 7
c1863 3 8
c1863 4 5
c1863 4 6
c1863 4 7
c1863 4 8
c1869 0 0
c1869 0 1
c1869 1 0
c1869 1 1
c1869 2 0
c1869 2 1
c1869 3 0
c1869 3 1
c1869 4 0
c1869 4 1
c1870 0 0
c1870 0 1
c1870 1 0
c1870 1 1
c1870 2 0
c1870 2 1
c1870 3 0
c1870 3 1
c1870 4 0
c1870 4 1
c1871 0 0
c1871 0 1
c1871 1 0
c1871 1 1
c1871 2 0
c1871 2 1
c1871 3 0
c1871 3 1
c1871 4 0
c1871 4 1
c1879 0 0
c1879 0 1
c1879 0 2
c1879 0 3
c1879 0 4
c1879 4 8
c1879 4 9
c1880 0 0
c1880 0 1
c1880 0 2
c1880 0 3
c1880 0 4
c1880 4 8
c1880 4 9
c1881 0 0
c1881 1 0
c1881 2 0
c1881 3 0
c1881 3 1
c1881 3 2
c1881 3 3
c1881 3 4
c1881 3 5
c1881 3 6
c1881 3 7
c1881 3 8
c1881 3 9
c1881 4 0
c1881 4 1
c1881 4 2
c1881 4 3
c1881 4 4
c1881 4 5
c1881 4 6
c1881 4 7
c1881 4 8
c1884 0 4
c1884 1 4
c1884 2 4
c1884 3 4
c1884 4 4
c1885 0 4
c1885 1 4
c1885 2 4
c1885 3 4
c1885 4 4
c1886 0 0
c1886 0 1
c1886 0 2
c1886 0 3
c1886 0 4
c1886 0 5
c1886 0 8
c1886 0 9
c1886 4 5
c1886 4 6
c1886 4 7
c1886 4 8
c1886 4 9
c1889 0 0
c1889 0 1
c1889 1 0
c1889 1 1
c1889 2 0
c1889 2 1
c1889 3 0
c1889 3 1
c1889 4 0
c1889 4 1
c1891 0 0
c1891 0 8
c1891 0 9
c1891 1 0
c1891 1 8
c1891 1 9
c1891 2 0
c1891 2 8
c1891 2 9
c1891 3 0
c1891 3 8
c1891 3 9
c1891 4 0
c1891 4 8
c1891 4 9
c1892 0 0
c1892 0 8
c1892 0 9
c1892 1 0
c1892 1 8
c1892 1 9
c1892 2 0
c1892 2 8
c1892 2 9
c1892 3 0
c1892 3 8
c1892 3 9
c1892 4 0
c1892 4 8
c1892 4 9
c1893 0 0
c1893 0 1
c1893 0 2
c1893 0 3
c1893 0 4
c1893 0 5
c1893 0 6
c1893 0 7
c1893 0 8
c1893 0 9
c1893 3 6
c1893 3 8
c1893 4 0
c1893 4 2
c1893 4 4
c1893 4 6
c1893 4 8
c1893 4 9
c1896 0 0
c1896 0 1
c1896 0 2
c1896 0 3
c1896 0 4
c1896 0 5
c1896 0 6
c1896 0 7
c1896 0 8
c1896 0 9
c1896 1 0
c1896 1 1
c1896 1 2
c1896 1 3
c1896 1 4
c1896 4 5
c1896 4 6
c1896 4 7
c1896 4 8
c1896 4 9
c1897 0 4
c1897 0 5
c1897 1 4
c1897 1 5
c1897 2 4
c1897 2 5
c1897 3 4
c1897 3 5
c1897 4 4
c1897 4 5
c1902 0 1
c1902 0 3
c1902 0 5
c1902 0 7
c1902 0 9
c1902 1 1
c1902 1 3
c1902 1 5
c1902 2 4
c1902 2 6
c1902 2 8
c1902 3 1
c1902 3 4
c1902 3 6
c1902 3 8
c1902 4 1
c1902 4 3
c1902 4 5
c1902 4 7
c1902 4 9
c1903 0 1
c1903 0 3
c1903 0 5
c1903 0 7
c1903 0 9
c1903 1 1
c1903 1 3
c1903 1 5
c1903 2 4
c1903 2 6
c1903 2 8
c1903 3 1
c1903 3 4
c1903 3 6
c1903 3 8
c1903 4 1
c1903 4 3
c1903 4 5
c1903 4 7
c1903 4 9
c2136 0 0
c2136 0 1
c2136 0 2
c2136 0 3
c2136 0 4
c2136 0 5
c2136 0 6
c2136 0 7
c2136 0 8
c2136 0 9
c2136 1 0
c2136 1 1
c2136 1 2
c2136 1 3
c2136 1 4
c2136 1 5
c2136 1 6
c2136 1 7
c2136 1 8
c2136 1 9
c2164 4 0
c2164 4 1
c2164 4 2
c2164 4 3
c2164 4 4
c2165 4 0
c2165 4 1
c2165 4 2
c2165 4 3
c2165 4 4
c2179 0 0
c2179 1 0
c2179 2 0
c2179 3 0
c2179 4 0
c2339 0 7
c2339 0 8
c2339 0 9
c2339 1 7
c2339 1 8
c2339 1 9
c2339 2 4
c2339 2 5
c2339 2 8
c2339 2 9
c2339 3 7
c2339 3 8
c2339 3 9
c2339 4 7
c2339 4 8
c2339 4 9
c2579 4 0
c2579 4 1
c2579 4 2
c2579 4 3
c2579 4 4
c2579 4 5
c2579 4 6
c2579 4 7
c2579 4 8
c2579 4 9
c2582 0 0
c2582 0 4
c2582 0 5
c2582 0 6
c2582 1 0
c2582 2 0
c2582 2 4
c2582 2 5
c2582 2 6
c2582 3 0
c2582 4 0
c2583 0 0
c2583 0 4
c2583 0 5
c2583 0 6
c2583 1 0
c2583 2 0
c2583 2 4
c2583 2 5
c2583 2 6
c2583 3 0
c2583 4 0
c2650 0 0
c2650 1 0
c2650 2 0
c2650 3 0
c2650 4 0
c2650 4 1
c2650 4 2
c2650 4 3
c2650 4 4
c2650 4 5
c2650 4 6
c2650 4 7
c2650 4 8
c2650 4 9
c2663 0 0
c2663 0 1
c2663 0 2
c2663 0 3
c2663 0 4
c2663 0 5
c2663 0 6
c2663 0 7
c2663 0 8
c2663 0 9
c2664 0 6
c2664 0 7
c2664 0 8
c2664 0 9
c2664 1 6
c2664 1 7
c2664 1 8
c2664 1 9
c2664 2 6
c2664 2 7
c2664 2 8
c2664 2 9
c2664 3 6
c2664 3 7
c2664 3 8
c2664 3 9
c2664 4 6
c2664 4 7
c2664 4 8
c2664 4 9
c6161 0 0
c6161 1 0
c6161 2 0
c6161 3 0
c6161 4 0

ROOM_CONSTRAINTS:
c1751 r22
c1751 r23
c1751 r24
c1751 r25
c1751 r26
c1751 r27
c1751 r28
c1751 r4
c1751 r5
c1751 r6
c1751 r7
c1751 r8
c1751 r9
c1751 r10
c1751 r11
c1751 r12
c1751 r13
c1751 r14
c1751 r15
c1751 r16
c1751 r17
c1751 r88
c1751 r89
c1751 r253
c1751 r254
c1751 r255
c1751 r256
c1751 r257
c1751 r258
c1751 r259
c1751 r260
c1751 r18
c1751 r19
c1751 r20
c1751 r21
c1751 r29
c1751 r30
c1751 r31
c1751 r32
c1751 r33
c1751 r34
c1751 r35
c1751 r37
c1751 r41
c1751 r42
c1780 r22
c1780 r23
c1780 r24
c1780 r25
c1780 r26
c1780 r27
c1780 r28
c1780 r4
c1780 r5
c1780 r6
c1780 r7
c1780 r8
c1780 r9
c1780 r10
c1780 r11
c1780 r12
c1780 r13
c1780 r14
c1780 r15
c1780 r16
c1780 r17
c1780 r88
c1780 r89
c1780 r253
c1780 r29
c1780 r30
c1780 r31
c1780 r32
c1780 r33
c1780 r34
c1780 r35
c1784 r22
c1784 r23
c1784 r24
c1784 r25
c1784 r26
c1784 r27
c1784 r28
c1784 r4
c1784 r5
c1784 r6
c1784 r7
c1784 r8
c1784 r9
c1784 r10
c1784 r11
c1784 r12
c1784 r13
c1784 r14
c1784 r15
c1784 r16
c1784 r17
c1784 r88
c1784 r89
c1784 r253
c1784 r29
c1784 r30
c1784 r31
c1784 r32
c1784 r33
c1784 r34
c1784 r35
c1790 r41
c1793 r41
c1796 r22
c1796 r23
c1796 r24
c1796 r25
c1796 r26
c1796 r27
c1796 r28
c1796 r4
c1796 r5
c1796 r6
c1796 r7
c1796 r8
c1796 r9
c1796 r10
c1796 r11
c1796 r12
c1796 r13
c1796 r14
c1796 r15
c1796 r16
c1796 r17
c1796 r88
c1796 r89
c1796 r253
c1796 r29
c1796 r30
c1796 r31
c1796 r32
c1796 r33
c1796 r34
c1796 r35
c1798 r41
c1800 r22
c1800 r23
c1800 r24
c1800 r25
c1800 r26
c1800 r27
c1800 r28
c1800 r4
c1800 r5
c1800 r6
c1800 r7
c1800 r8
c1800 r9
c1800 r10
c1800 r11
c1800 r12
c1800 r13
c1800 r14
c1800 r15
c1800 r16
c1800 r17
c1800 r88
c1800 r89
c1800 r253
c1800 r29
c1800 r30
c1800 r31
c1800 r32
c1800 r33
c1800 r34
c1800 r35
c1801 r41
c1802 r22
c1802 r23
c1802 r24
c1802 r25
c1802 r26
c1802 r27
c1802 r28
c1802 r4
c1802 r5
c1802 r6
c1802 r7
c1802 r8
c1802 r9
c1802 r10
c1802 r11
c1802 r12
c1802 r13
c1802 r14
c1802 r15
c1802 r16
c1802 r17
c1802 r88
c1802 r89
c1802 r253
c1802 r29
c1802 r30
c1802 r31
c1802 r32
c1802 r33
c1802 r34
c1802 r35
c1804 r22
c1804 r23
c1804 r24
c1804 r25
c1804 r26
c1804 r27
c1804 r28
c1804 r4
c1804 r5
c1804 r6
c1804 r7
c1804 r8
c1804 r9
c1804 r10
c1804 r11
c1804 r12
c1804 r13
c1804 r14
c1804 r15
c1804 r16
c1804 r17
c1804 r88
c1804 r89
c1804 r253
c1804 r29
c1804 r30
c1804 r31
c1804 r32
c1804 r33
c1804 r34
c1804 r35
c1806 r22
c1806 r23
c1806 r24
c1806 r25
c1806 r26
c1806 r27
c1806 r28
c1806 r4
c1806 r5
c1806 r6
c1806 r7
c1806 r8
c1806 r9
c1806 r10
c1806 r11
c1806 r12
c1806 r13
c1806 r14
c1806 r15
c1806 r16
c1806 r17
c1806 r88
c1806 r89
c1806 r253
c1806 r29
c1806 r30
c1806 r31
c1806 r32
c1806 r33
c1806 r34
c1806 r35
c1807 r41
c1808 r41
c1816 r22
c1816 r23
c1816 r24
c1816 r25
c1816 r26
c1816 r27
c1816 r28
c1816 r4
c1816 r5
c1816 r6
c1816 r7
c1816 r8
c1816 r9
c1816 r10
c1816 r11
c1816 r12
c1816 r13
c1816 r14
c1816 r15
c1816 r16
c1816 r17
c1816 r88
c1816 r89
c1816 r253
c1816 r29
c1816 r30
c1816 r31
c1816 r32
c1816 r33
c1816 r34
c1816 r35
c1817 r22
c1817 r23
c1817 r24
c1817 r25
c1817 r26
c1817 r27
c1817 r28
c1817 r4
c1817 r5
c1817 r6
c1817 r7
c1817 r8
c1817 r9
c1817 r10
c1817 r11
c1817 r12
c1817 r13
c1817 r14
c1817 r15
c1817 r16
c1817 r17
c1817 r88
c1817 r89
c1817 r253
c1817 r29
c1817 r30
c1817 r31
c1817 r32
c1817 r33
c1817 r34
c1817 r35
c1819 r41
c1825 r22
c1825 r23
c1825 r24
c1825 r25
c1825 r26
c1825 r27
c1825 r28
c1825 r4
c1825 r5
c1825 r6
c1825 r7
c1825 r8
c1825 r9
c1825 r10
c1825 r11
c1825 r12
c1825 r13
c1825 r14
c1825 r15
c1825 r16
c1825 r17
c1825 r88
c1825 r89
c1825 r253
c1825 r29
c1825 r30
c1825 r31
c1825 r32
c1825 r33
c1825 r34
c1825 r35
c1827 r22
c1827 r23
c1827 r24
c1827 r25
c1827 r26
c1827 r27
c1827 r28
c1827 r4
c1827 r5
c1827 r6
c1827 r7
c1827 r8
c1827 r9
c1827 r10
c1827 r11
c1827 r12
c1827 r13
c1827 r14
c1827 r15
c1827 r16
c1827 r17
c1827 r88
c1827 r89
c1827 r253
c1827 r29
c1827 r30
c1827 r31
c1827 r32
c1827 r33
c1827 r34
c1827 r35
c1833 r41
c1836 r22
c1836 r23
c1836 r24
c1836 r25
c1836 r26
c1836 r27
c1836 r28
c1836 r4
c1836 r5
c1836 r6
c1836 r7
c1836 r8
c1836 r9
c1836 r10
c1836 r11
c1836 r12
c1836 r13
c1836 r14
c1836 r15
c1836 r16
c1836 r17
c1836 r88
c1836 r89
c1836 r253
c1836 r29
c1836 r30
c1836 r31
c1836 r32
c1836 r33
c1836 r34
c1836 r35
c1837 r32
c1837 r35
c1837 r41
c1838 r41
c1840 r22
c1840 r23
c1840 r24
c1840 r25
c1840 r26
c1840 r27
c1840 r28
c1840 r4
c1840 r5
c1840 r6
c1840 r7
c1840 r8
c1840 r9
c1840 r10
c1840 r11
c1840 r12
c1840 r13
c1840 r14
c1840 r15
c1840 r16
c1840 r17
c1840 r88
c1840 r89
c1840 r253
c1840 r29
c1840 r30
c1840 r31
c1840 r32
c1840 r33
c1840 r34
c1840 r35
c1842 r22
c1842 r23
c1842 r24
c1842 r25
c1842 r26
c1842 r27
c1842 r28
c1842 r4
c1842 r5
c1842 r6
c1842 r7
c1842 r8
c1842 r9
c1842 r10
c1842 r11
c1842 r12
c1842 r13
c1842 r14
c1842 r15
c1842 r16
c1842 r17
c1842 r88
c1842 r89
c1842 r253
c1842 r29
c1842 r30
c1842 r31
c1842 r32
c1842 r33
c1842 r34
c1842 r35
c1845 r22
c1845 r23
c1845 r24
c1845 r25
c1845 r26
c1845 r27
c1845 r28
c1845 r4
c1845 r5
c1845 r6
c1845 r7
c1845 r8
c1845 r9
c1845 r10
c1845 r11
c1845 r12
c1845 r13
c1845 r14
c1845 r15
c1845 r16
c1845 r17
c1845 r88
c1845 r89
c1845 r253
c1845 r29
c1845 r30
c1845 r31
c1845 r32
c1845 r33
c1845 r34
c1845 r35
c1850 r41
c1854 r41
c1863 r22
c1863 r23
c1863 r24
c1863 r25
c1863 r26
c1863 r27
c1863 r28
c1863 r4
c1863 r5
c1863 r6
c1863 r7
c1863 r8
c1863 r9
c1863 r10
c1863 r11
c1863 r12
c1863 r13
c1863 r14
c1863 r15
c1863 r16
c1863 r17
c1863 r88
c1863 r89
c1863 r253
c1863 r29
c1863 r30
c1863 r31
c1863 r32
c1863 r33
c1863 r34
c1863 r35
c1870 r22
c1870 r23
c1870 r24
c1870 r25
c1870 r26
c1870 r27
c1870 r28
c1870 r4
c1870 r5
c1870 r6
c1870 r7
c1870 r8
c1870 r9
c1870 r10
c1870 r11
c1870 r12
c1870 r13
c1870 r14
c1870 r15
c1870 r16
c1870 r17
c1870 r88
c1870 r89
c1870 r253
c1870 r29
c1870 r30
c1870 r31
c1870 r32
c1870 r33
c1870 r34
c1870 r35
c1871 r22
c1871 r23
c1871 r24
c1871 r25
c1871 r26
c1871 r27
c1871 r28
c1871 r4
c1871 r5
c1871 r6
c1871 r7
c1871 r8
c1871 r9
c1871 r10
c1871 r11
c1871 r12
c1871 r13
c1871 r14
c1871 r15
c1871 r16
c1871 r17
c1871 r88
c1871 r89
c1871 r253
c1871 r29
c1871 r30
c1871 r31
c1871 r32
c1871 r33
c1871 r34
c1871 r35
c1879 r41
c1880 r41
c1884 r41
c1885 r22
c1885 r23
c1885 r24
c1885 r25
c1885 r26
c1885 r27
c1885 r28
c1885 r4
c1885 r5
c1885 r6
c1885 r7
c1885 r8
c1885 r9
c1885 r10
c1885 r11
c1885 r12
c1885 r13
c1885 r14
c1885 r15
c1885 r16
c1885 r17
c1885 r88
c1885 r89
c1885 r253
c1885 r29
c1885 r30
c1885 r31
c1885 r32
c1885 r33
c1885 r34
c1885 r35
c1886 r41
c1891 r41
c1892 r22
c1892 r23
c1892 r24
c1892 r25
c1892 r26
c1892 r27
c1892 r28
c1892 r4
c1892 r5
c1892 r6
c1892 r7
c1892 r8
c1892 r9
c1892 r10
c1892 r11
c1892 r12
c1892 r13
c1892 r14
c1892 r15
c1892 r16
c1892 r17
c1892 r88
c1892 r89
c1892 r253
c1892 r29
c1892 r30
c1892 r31
c1892 r32
c1892 r33
c1892 r34
c1892 r35
c1892 r37
c1892 r41
c1896 r41
c1902 r4
c1902 r5
c1902 r6
c1902 r41
c1903 r22
c1903 r23
c1903 r24
c1903 r25
c1903 r26
c1903 r27
c1903 r28
c1903 r4
c1903 r5
c1903 r6
c1903 r7
c1903 r8
c1903 r9
c1903 r10
c1903 r11
c1903 r12
c1903 r13
c1903 r14
c1903 r15
c1903 r16
c1903 r17
c1903 r88
c1903 r89
c1903 r253
c1903 r29
c1903 r30
c1903 r31
c1903 r32
c1903 r33
c1903 r34
c1903 r35
c2073 r29
c2073 r30
c2073 r31
c2073 r32
c2073 r33
c2073 r34
c2073 r35
c2073 r262
c2073 r261
c2073 r263
c2073 r264
c2073 r36
c2073 r37
c2073 r38
c2073 r41
c2073 r42
c2136 r22
c2136 r23
c2136 r24
c2136 r25
c2136 r26
c2136 r27
c2136 r28
c2136 r4
c2136 r5
c2136 r6
c2136 r7
c2136 r8
c2136 r9
c2136 r10
c2136 r11
c2136 r12
c2136 r13
c2136 r14
c2136 r15
c2136 r16
c2136 r17
c2136 r88
c2136 r89
c2136 r253
c2136 r254
c2136 r255
c2136 r256
c2136 r257
c2136 r258
c2136 r259
c2136 r260
c2136 r18
c2136 r19
c2136 r20
c2136 r21
c2136 r29
c2136 r30
c2136 r31
c2136 r37
c2136 r41
c2136 r42
c2165 r22
c2165 r23
c2165 r24
c2165 r25
c2165 r26
c2165 r27
c2165 r28
c2165 r4
c2165 r5
c2165 r6
c2165 r7
c2165 r8
c2165 r9
c2165 r10
c2165 r11
c2165 r12
c2165 r13
c2165 r14
c2165 r15
c2165 r16
c2165 r17
c2165 r88
c2165 r89
c2165 r253
c2165 r29
c2165 r30
c2165 r31
c2165 r32
c2165 r33
c2165 r34
c2165 r35
c2179 r22
c2179 r23
c2179 r24
c2179 r25
c2179 r26
c2179 r27
c2179 r28
c2179 r4
c2179 r5
c2179 r6
c2179 r7
c2179 r8
c2179 r9
c2179 r10
c2179 r11
c2179 r12
c2179 r13
c2179 r14
c2179 r15
c2179 r16
c2179 r17
c2179 r88
c2179 r89
c2179 r253
c2179 r29
c2179 r30
c2179 r31
c2179 r32
c2179 r33
c2179 r34
c2179 r35
c2195 r22
c2195 r23
c2195 r24
c2195 r25
c2195 r26
c2195 r27
c2195 r28
c2195 r4
c2195 r5
c2195 r6
c2195 r7
c2195 r8
c2195 r9
c2195 r10
c2195 r11
c2195 r12
c2195 r13
c2195 r14
c2195 r15
c2195 r16
c2195 r17
c2195 r88
c2195 r89
c2195 r253
c2195 r29
c2195 r30
c2195 r31
c2195 r32
c2195 r33
c2195 r34
c2195 r35
c2574 r41
c2623 r22
c2623 r23
c2623 r24
c2623 r25
c2623 r26
c2623 r27
c2623 r28
c2623 r4
c2623 r5
c2623 r6
c2623 r7
c2623 r8
c2623 r9
c2623 r10
c2623 r11
c2623 r12
c2623 r13
c2623 r14
c2623 r15
c2623 r16
c2623 r17
c2623 r88
c2623 r89
c2623 r253
c2623 r29
c2623 r30
c2623 r31
c2623 r32
c2623 r33
c2623 r34
c2623 r35
c2650 r41
c2663 r41
c2664 r41
c2671 r22
c2671 r23
c2671 r24
c2671 r25
c2671 r26
c2671 r27
c2671 r28
c2671 r4
c2671 r5
c2671 r6
c2671 r7
c2671 r8
c2671 r9
c2671 r10
c2671 r11
c2671 r12
c2671 r13
c2671 r14
c2671 r15
c2671 r16
c2671 r17
c2671 r88
c2671 r89
c2671 r253
c2671 r29
c2671 r30
c2671 r31
c2671 r32
c2671 r33
c2671 r34
c2671 r35

END.
